(define-funs-rec
  ((u3
    ((x Int) (y Int) (z Int)) Int)
   (v3
    ((x Int) (y Int) (z Int)) Int))
  ((ite (<= x 0) y (+ (u3 (- x 1) y z) (v3 (- x 1) y z)))
   (ite (<= x 0) z (u3 (- x 1) y z))))
(define-funs-rec
  ((u2
    ((x Int) (y Int) (z Int)) Int)
   (v2
    ((x Int) (y Int) (z Int)) Int))
  ((ite (<= x 0) y (+ (u2 (- x 1) y z) (v2 (- x 1) y z)))
   (ite (<= x 0) z (u2 (- x 1) y z))))
(define-fun
  h3
  ((x Int)) Int (* 2 (+ x x)))
(define-fun
  w3
  ((x Int)) Int (u3 (h3 x) 1 1))
(define-fun
  h2
  ((x Int) (y Int)) Int (+ y y))
(define-fun
  w2
  ((x Int) (y Int)) Int (u2 (h2 x y) 0 1))
(define-fun
  g3
  ((x Int)) Int x)
(define-fun
  g2
  ((x Int)) Int x)
(define-fun
  g0
  ((x Int)) Int x)
(define-fun
  fast
  ((x Int)) Int (div (- (- (w3 x) x) x) (+ 1 (+ 2 2))))
(define-fun
  f1
  ((x Int)) Int (* x x))
(define-fun-rec
  u1
  ((x Int) (y Int)) Int (ite (<= x 0) y (f1 (u1 (- x 1) y))))
(define-fun
  v1
  ((x Int) (y Int)) Int (u1 1 (w2 x y)))
(define-fun
  f0
  ((x Int) (y Int)) Int (+ (v1 x y) x))
(define-fun-rec
  u0
  ((x Int) (y Int)) Int (ite (<= x 0) y (f0 (u0 (- x 1) y) x)))
(define-fun
  v0
  ((x Int)) Int (u0 x 0))
(assert-not
  (forall ((c Int)) (or (not (>= c 0)) (= (v0 c) (fast c)))))
